row=8;
column=8;
Board=[|4,0,0,0,0,0,0,0|0,0,0,0,0,0,0,0|0,0,0,0,0,0,4,0|0,0,0,0,0,0,0,0|0,0,0,0,0,0,5,0|0,0,0,0,0,0,0,0|0,0,0,0,0,0,0,0|0,0,0,0,0,0,0,0|];
right = [5,1,5,1,5,0,2,1];
bottom = [3,2,4,2,4,1,2,2];
